NAME: line_22_86
TYPE: TSP
COMMENT: srandom_22_86
DIMENSION: 22
EDGE_WEIGHT_TYPE: EUC_2D
NODE_COORD_SECTION
1 578 4484
2 4157 346
3 274 2862
4 2854 2734
5 2900 4987
6 226 4097
7 2396 3063
8 2372 4342
9 658 3489
10 911 3033
11 586 3316
12 1955 1005
13 1878 3571
14 3864 4352
15 1526 580
16 2400 1192
17 3213 1204
18 1185 4511
19 870 3986
20 2798 2513
21 1150 400
22 2035 2682
